
Gurobi 6.5.2 (win64) logging started 07/24/16 17:29:46


Gurobi 6.5.2 (win64) logging started 07/24/16 17:29:46

Optimize a model with 2602 rows, 742 columns and 6819 nonzeros
Coefficient statistics:
  Matrix range    [6e-08, 1e+03]
  Objective range [1e+00, 1e+00]
  Bounds range    [1e+00, 1e+00]
  RHS range       [6e-06, 2e+03]
Presolve removed 2359 rows and 489 columns
Presolve time: 0.00s
Presolved: 243 rows, 253 columns, 1050 nonzeros
Variable types: 253 continuous, 0 integer (0 binary)

Root relaxation: objective 1.963827e+01, 245 iterations, 0.00 seconds

    Nodes    |    Current Node    |     Objective Bounds      |     Work
 Expl Unexpl |  Obj  Depth IntInf | Incumbent    BestBd   Gap | It/Node Time

*    0     0               0      19.6382655   19.63827  0.00%     -    0s

Explored 0 nodes (245 simplex iterations) in 0.02 seconds
Thread count was 8 (of 8 available processors)

Optimal solution found (tolerance 1.00e-04)
Best objective 1.963826553879e+01, best bound 1.963826553879e+01, gap 0.0%

Wrote requested result file 'H1\instance13\\Results13EC_Sol4.lp'

